18 1
16 4
16 9
16 12
23 1
31 4
31 4
32 4
37 4
37 4
37 8
44 4
41 11
46 1
50 3
49 3
46 3
53 3
80 24
80 24
80 25
88 24
107 29
106 29
100 29
110 29
112 29
112 30
112 31
112 32
112 35
112 36
111 37
114 26
112 19
112 20
115 16
88 6
108 6
109 7
111 7
112 7
112 8
116 16
116 12
95 6
107 20
112 21
114 22
115 24
114 24
99 24
100 33
89 24
94 33
90 24
80 19
57 7
57 7
57 10
57 15
55 16
55 20
57 20
57 22
59 22
68 34
71 35
68 35
68 36
63 36
59 36
59 26
50 23
48 30
41 31
42 31
43 31
57 3
65 7
69 14
70 14
76 15
41 17
31 1
28 4
33 15
33 18
33 20
30 23
11 35
12 35
15 35
10 35
4 18
4 19
5 27
6 30
6 34
3 34
6 35
5 22
18 34
25 29
27 29
27 32
19 34
27 34
30 24
31 15
27 6
26 13
27 13
29 13
27 10
15 4
16 13
5 4
